PARAMETER_FILE = even/LKH_uncomplete_graph/x5/seg/par/random165.par
PROBLEM_FILE = even/LKH_uncomplete_graph/x5/seg/mat/random165.tsp
Successes/Runs = 0/10
Cost.min = 954, Cost.avg = 954.00, Cost.max = 954
Gap.min = 0.0000%, Gap.avg = 0.0000%, Gap.max = 0.0000%
Trials.min = 1000, Trials.avg = 1000.0, Trials.max = 1000
Time.min = 0.33 sec., Time.avg = 0.51 sec., Time.max = 0.62 sec.
Time.total = 5.21 sec.
请按任意键继续. . . 
